NAME : kroE100
TYPE : OP
DIMENSION : 100
COST_LIMIT : 11034
ROUTE_NODES : 54
ROUTE_SCORE : 3082
ROUTE_COST : 10953
NODE_SEQUENCE_SECTION
1
83
73
16
79
26
81
89
71
61
14
52
44
72
68
38
33
22
86
43
19
94
91
55
93
30
90
42
5
8
65
25
54
45
99
17
84
40
88
35
62
49
56
20
15
23
64
58
32
12
76
7
21
74
-1
DEPOT_SECTION
1
-1
EOF
